
;this file is automatically generated: Fri Jan 03 16:26:56 GMT 2020

;declarations generated

(declare-fun obj_32ba415f_be0c_44f1_8174_05037c18cfea ( Int) Int)
(declare-fun oclExcludes ( Int Int) Bool)
(declare-fun Cardinality ( Int) Int)
(declare-fun class15_Class15IntAttr5 ( Int) Int)
(declare-fun class15_Class15IntAttr6 ( Int) Int)
(declare-fun class15_Class15IntAttr4 ( Int) Int)
(declare-fun type_d5c22431_16ad_4b85_ba49_bd75cb62c3e7_Class15 ( Int) Bool)
(declare-fun oclSelect ( Int Bool) Int)
(declare-fun class15_Class15BoolAttr1 ( Int) Bool)
(declare-fun class15_Class15BoolAttr0 ( Int) Bool)
(declare-fun class15_Class15BoolAttr2 ( Int) Bool)
(declare-fun Enum0 ( Int) Int)
(declare-fun Enum1 ( Int) Int)
(declare-fun Enum2 ( Int) Int)
(declare-fun container_ ( Int) Int)
(declare-fun oclIncludes ( Int Int) Bool)
(declare-fun ObjAt ( Int Int) Int)

;formula(s) generated
(assert (forall ((p Int)) (=> ( type_d5c22431_16ad_4b85_ba49_bd75cb62c3e7_Class15 p )  (and (>= ( Enum0 ( obj_32ba415f_be0c_44f1_8174_05037c18cfea p )  )  0) (<= ( Enum0 ( obj_32ba415f_be0c_44f1_8174_05037c18cfea p )  )  4)))))
(assert (! (or (forall ((c5_2 Int)(c5_1 Int)) (=> (and ( type_d5c22431_16ad_4b85_ba49_bd75cb62c3e7_Class15 c5_1 )  ( type_d5c22431_16ad_4b85_ba49_bd75cb62c3e7_Class15 c5_2 ) ) (< ( class15_Class15IntAttr6 ( obj_32ba415f_be0c_44f1_8174_05037c18cfea c5_1 )  )  ( class15_Class15IntAttr4 ( obj_32ba415f_be0c_44f1_8174_05037c18cfea c5_2 )  ) ))) (forall ((v Int)) (=> ( type_d5c22431_16ad_4b85_ba49_bd75cb62c3e7_Class15 v )  (not (= ( class15_Class15IntAttr4 ( obj_32ba415f_be0c_44f1_8174_05037c18cfea v )  )  2) )))):named l0))
(assert (! (or (forall ((v Int)) (=> ( type_d5c22431_16ad_4b85_ba49_bd75cb62c3e7_Class15 v )  (< ( class15_Class15IntAttr6 ( obj_32ba415f_be0c_44f1_8174_05037c18cfea v )  )  11))) (forall ((v Int)) (=> ( type_d5c22431_16ad_4b85_ba49_bd75cb62c3e7_Class15 v )  (= ( class15_Class15IntAttr4 ( obj_32ba415f_be0c_44f1_8174_05037c18cfea v )  )  11)))):named l1))
(assert (! (forall ((v Int)) (=> ( type_d5c22431_16ad_4b85_ba49_bd75cb62c3e7_Class15 v )  (or ( class15_Class15BoolAttr0 ( obj_32ba415f_be0c_44f1_8174_05037c18cfea v )  )  (or (forall ((v Int)) (=> ( type_d5c22431_16ad_4b85_ba49_bd75cb62c3e7_Class15 v )  (or ( class15_Class15BoolAttr1 ( obj_32ba415f_be0c_44f1_8174_05037c18cfea v )  )  (or (forall ((v Int)) (=> ( type_d5c22431_16ad_4b85_ba49_bd75cb62c3e7_Class15 v )  ( class15_Class15BoolAttr2 ( obj_32ba415f_be0c_44f1_8174_05037c18cfea v )  ) )) (forall ((v Int)) (=> ( type_d5c22431_16ad_4b85_ba49_bd75cb62c3e7_Class15 v )  (= ( class15_Class15IntAttr5 ( obj_32ba415f_be0c_44f1_8174_05037c18cfea v )  )  17))))))) (forall ((v Int)) (=> ( type_d5c22431_16ad_4b85_ba49_bd75cb62c3e7_Class15 v )  ( class15_Class15BoolAttr2 ( obj_32ba415f_be0c_44f1_8174_05037c18cfea v )  ) )))))):named l2))
(assert (! (forall ((c5_2 Int)(c5_1 Int)) (=> (and ( type_d5c22431_16ad_4b85_ba49_bd75cb62c3e7_Class15 c5_1 )  ( type_d5c22431_16ad_4b85_ba49_bd75cb62c3e7_Class15 c5_2 ) ) (or (< ( class15_Class15IntAttr6 ( obj_32ba415f_be0c_44f1_8174_05037c18cfea c5_1 )  )  ( class15_Class15IntAttr5 ( obj_32ba415f_be0c_44f1_8174_05037c18cfea c5_2 )  ) ) (or (forall ((c5_2 Int)(c5_1 Int)) (=> (and ( type_d5c22431_16ad_4b85_ba49_bd75cb62c3e7_Class15 c5_1 )  ( type_d5c22431_16ad_4b85_ba49_bd75cb62c3e7_Class15 c5_2 ) ) (not (= ( class15_Class15IntAttr4 ( obj_32ba415f_be0c_44f1_8174_05037c18cfea c5_1 )  )  ( class15_Class15IntAttr6 ( obj_32ba415f_be0c_44f1_8174_05037c18cfea c5_2 )  ) ) ))) (forall ((v Int)) (=> ( type_d5c22431_16ad_4b85_ba49_bd75cb62c3e7_Class15 v )  (not (= ( Enum0 ( obj_32ba415f_be0c_44f1_8174_05037c18cfea v )  )  0) ))))))):named l3))
(assert (! (forall ((c5_2 Int)(c5_1 Int)) (=> (and ( type_d5c22431_16ad_4b85_ba49_bd75cb62c3e7_Class15 c5_1 )  ( type_d5c22431_16ad_4b85_ba49_bd75cb62c3e7_Class15 c5_2 ) ) (not (= ( class15_Class15IntAttr4 ( obj_32ba415f_be0c_44f1_8174_05037c18cfea c5_1 )  )  ( class15_Class15IntAttr5 ( obj_32ba415f_be0c_44f1_8174_05037c18cfea c5_2 )  ) ) ))):named l4))
(assert (exists ((o Int)) ( type_d5c22431_16ad_4b85_ba49_bd75cb62c3e7_Class15 ( obj_32ba415f_be0c_44f1_8174_05037c18cfea o )  ) ))

 ;end of formula 